Cell 1
 1.0000000000000000
     2.7599999999999998    0.0000000000000000    0.0000000000000000
     0.0000000000000000    4.7804602288901004    0.0000000000000000
     0.0000000000000000    0.0000000000000000    4.4573999999999998
 Re 
   4
Direct
  0.0000000000000000  0.0000000000000000  0.0000000000000000
  0.5000000000000000  0.5000000000000000  0.0000000000000000
  0.5000000000000000  0.1666666666666667  0.5000000000000000
  0.0000000000000000  0.6666666666666666  0.5000000000000000
