Cell 1
 1.0000000000000000
     3.1600000000000001    0.0000000000000000    0.0000000000000000
     0.0000000000000000    3.1600000000000001    0.0000000000000000
     0.0000000000000000    0.0000000000000000    3.1600000000000001
 W  
   2
Direct
  0.0000000000000000  0.0000000000000000  0.0000000000000000
  0.4999999999999999  0.4999999999999999  0.4999999999999999
