Cell 1                                  
   1.00000000000000     
     3.0  0.0  0.0
     0.0  3.0  0.0
     0.0  0.0  3.0
   Al
    1
Direct
  0.0  0.0  0.0 
  
