Cell 1
   1.00000000000000
     4.5  0.0  0.0
     0.0  4.5  0.0
     0.0  0.0  4.5
   Al
    4
Direct
  0.0  0.0  0.0
  0.5  0.5  0.0
  0.5  0.0  0.5
  0.0  0.5  0.5
