Cell 2
   1.00000000000000
     6.1183166770647475   -0.0350981211763603   -0.0223275507736962
    -3.0750550336164668    4.3720242901266602    0.0318636424443101
     0.0408261553493331    0.0793187418826100   16.8873559347421711
   Al   Ti   Cr   V
     8     8     8     8
Direct
  0.9482124004500854  0.9131061670338229  0.0040073183833650
  0.7348189709910244  0.9339155869952113  0.6185727015711935
  0.7316136144436729  0.9322900960299031  0.3771512255046690
  0.4426235820710637  0.4125719794840713  0.2517019902154360
  0.7243524964491577  0.9469568584878617  0.1327515767925618
  0.4385178839302318  0.4066916170375280  0.9954469680585639
  0.7071226196633338  0.3723959630552258  0.8704149235897134
  0.4223097080258373  0.3865397818943928  0.7524078133540049
  0.4499268846605488  0.9002732744388551  0.7444328686659124
  0.7258822190460076  0.4287834651639312  0.6228172329323431
  0.4440870527742741  0.9249292441965694  0.4988821664911696
  0.7309863024963716  0.4331803646373802  0.3776241657095882
  0.4342308503040709  0.9102542067903918  0.2553350487908959
  0.7330882465460410  0.4462963481486784  0.1258212728592095
  0.4513482558215353  0.9114617770417698  0.0024446926642487
  0.1823619472467627  0.8979104372481721  0.8721544655163616
  0.9725641264127896  0.3967819202855110  0.7464509565545608
  0.2055624993602352  0.9316478034682475  0.6247749731658980
  0.9750374242960155  0.4170746032744184  0.4992459091569110
  0.2087831075993064  0.9357849147364672  0.3746444914554321
  0.9666216884292302  0.4068776419104672  0.2506711927362554
  0.2107602095665466  0.9365196087139447  0.1307859920399335
  0.9629249643792904  0.4168596306170518  0.0002256472173966
  0.1531206231684587  0.3857502991321154  0.8749652192787797
  0.4678356655939180  0.4421708312368149  0.4998372985682042
  0.9449514963011852  0.8708406847917941  0.7467942413211625
  0.2143650706027769  0.4343580479735840  0.6192528556559231
  0.0001324419432026  0.9311697441880531  0.4991819430991710
  0.2112923205402170  0.4373480046238767  0.3825403904334951
  0.9753270588397082  0.8989651679330637  0.2516591212055323
  0.2007635439548416  0.4563731145365978  0.1261197334605225
  0.6951413907588673  0.8772541482276348  0.8708836035515867
